# Objective value = 95603
x66 0
x67 1
x68 0
x69 0
x70 1
x71 0
x72 0
x73 1
x74 0
x75 1
x76 0
x77 1
x78 0
x79 1
x80 1
x81 0
x82 1
x83 0
x84 1
x85 1
x86 1
x87 0
x88 1
x89 0
x90 1
x91 1
x92 1
x93 1
x94 1
x95 0
x96 1
x97 0
x98 0
x99 0
x100 0
x101 0
x102 1
x103 0
x104 1
x105 0
x106 0
x107 0
x108 0
x109 0
x110 1
x111 0
x112 1
x113 0
x114 1
x115 1
x116 1
x117 1
x118 1
x119 0
x120 0
x121 0
x122 1
x123 0
x124 1
x125 1
x126 1
x127 1
x128 1
x129 0
x130 0
x131 1
x132 0
x133 1
x134 0
x135 1
x136 1
x137 1
x138 1
x139 1
x140 0
x141 0
x142 1
x143 1
x144 0
x145 1
x146 0
x147 1
x148 1
x149 1
x150 1
x151 1
x152 0
x153 0
x154 1
x155 1
x156 1
x157 0
x158 1
x159 0
x160 1
x161 1
x162 1
x163 1
x164 1
x165 0
x166 0
x167 1
x168 1
x169 1
x170 1
x171 1
x172 0
x173 1
x174 0
x175 0
x176 0
x177 0
x178 0
x179 1
x180 1
x181 0
x182 0
x183 0
x184 0
x185 0
x186 0
x187 1
x188 0
x189 1
x190 1
x191 1
x192 1
x193 1
x194 0
x195 0
x196 1
x197 1
x198 1
x199 1
x200 1
x201 0
x202 0
x203 1
x204 0
x205 1
x206 1
x207 0
x208 1
x209 0
x210 1
x211 0
x212 1
x213 1
x214 1
x215 1
x216 1
x217 1
x218 0
x219 1
x220 0
x221 0
x222 0
x223 1
x224 0
x225 0
x226 0
x227 1
x228 0
x229 1
x230 1
x231 1
x232 1
x233 1
x234 1
x235 0
x236 1
x237 0
x238 0
x239 0
x240 1
x241 1
x242 0
x243 0
x244 0
x245 1
x246 0
x247 0
x248 1
x249 1
x250 1
x251 0
x252 1
x253 1
x254 1
x255 1
x256 0
x257 1
x258 0
x259 0
x260 1
x261 1
x262 1
x263 0
x264 1
x265 0
x266 1
x267 1
x268 0
x269 1
x270 0
x271 1
x272 0
x273 1
x274 1
x275 1
x276 0
x277 1
x278 1
x279 1
x280 1
x281 0
x282 1
x283 0
x284 1
x285 1
x286 0
x287 1
x288 1
x289 0
x290 1
x291 1
x292 1
x293 1
x294 1
x295 0
x296 1
x297 0
x298 1
x299 1
x300 1
x301 0
x302 0
x303 1
x304 0
x305 1
x306 1
x307 1
x308 1
x309 1
x310 0
x311 1
x312 0
x313 1
x314 1
x315 1
x316 1
x317 0
x318 1
x319 1
x320 0
x321 1
x322 1
x323 1
x324 1
x325 1
x326 0
x327 1
x328 0
x329 1
x330 1
x331 1
x332 1
x333 1
x334 1
x335 0
x336 1
x337 1
x338 0
x339 0
x340 0
x341 0
x342 0
x343 1
x344 0
x345 1
x346 0
x347 0
x348 0
x349 0
x350 0
x351 0
x352 0
x353 1
x354 1
x355 1
x356 1
x357 0
x358 1
x359 1
x360 1
x361 0
x362 1
x363 0
x364 1
x365 1
x366 1
x367 1
x368 1
x369 1
x370 0
x371 1
x372 1
x373 0
x374 0
x375 0
x376 1
x377 0
x378 0
x379 0
x380 1
x381 0
x382 1
x383 0
x384 0
x385 0
x386 0
x387 0
x388 0
x389 1
x390 0
x391 0
x392 1
x393 1
x394 1
x395 1
x396 0
x397 1
x398 1
x399 1
x400 0
x401 1
x402 0
x403 1
x404 1
x405 1
x406 1
x407 1
x408 1
x409 0
x410 1
x411 0
x412 0
x413 1
x414 0
x415 1
x416 1
x417 0
x418 1
x419 1
x420 1
x421 0
x422 1
x423 0
x424 1
x425 1
x426 1
x427 1
x428 1
x429 1
x430 0
x431 1
x432 0
x433 1
x434 0
x435 1
x436 0
x437 1
x438 1
x439 1
x440 1
x441 1
x442 0
x443 1
x444 0
x445 0
x446 1
x447 0
x448 1
x449 1
x450 1
x451 1
x452 1
x453 0
x454 1
x455 1
x456 1
x457 0
x458 1
x459 0
x460 1
x461 1
x462 1
x463 1
x464 1
x465 0
x466 1
x467 1
x468 1
x469 1
x470 1
x471 0
x472 1
x473 0
x474 0
x475 1
x476 0
x477 0
x478 1
x479 0
x480 0
x481 0
x482 0
x483 0
x484 0
x485 1
x486 1
x487 1
x488 1
x489 0
x490 1
x491 0
x492 1
x493 1
x494 1
x495 1
x496 1
x497 1
x498 0
x499 1
x500 1
x501 0
x502 0
x503 0
x504 1
x505 0
x506 1
x507 0
x508 0
x509 0
x510 0
x511 0
x512 0
x513 1
x514 0
x515 0
x516 1
x517 1
x518 1
x519 1
x520 0
x521 0
x522 0
x523 1
x524 1
x525 1
x526 1
x527 1
x528 1
x529 0
x530 1
x531 0
x532 0
x533 1
x534 1
x535 1
x536 1
x537 0
x538 1
x539 0
x540 1
x541 1
x542 1
x543 1
x544 1
x545 1
x546 0
x547 1
x548 0
x549 1
x550 0
x551 0
x552 1
x553 1
x554 1
x555 1
x556 1
x557 1
x558 1
x559 0
x560 1
x561 1
x562 1
x563 1
x564 0
x565 1
x566 0
x567 1
x568 1
x569 0
x570 0
x571 1
x572 1
x573 1
x574 1
x575 1
x576 1
x577 1
x578 0
x579 0
x580 1
x581 1
x582 1
x583 0
x584 1
x585 0
x586 1
x587 1
x588 1
x589 1
x590 1
x591 0
x592 0
x593 0
x594 1
x595 0
x596 0
x597 0
x598 1
x599 0
x600 0
x601 0
x602 0
x603 1
x604 0
x605 1
x606 0
x607 0
x608 0
x609 0
x610 0
x611 0
x612 1
x613 1
x614 1
x615 1
x616 1
x617 1
x618 1
x619 0
x620 1
x621 1
x622 1
x623 1
x624 0
x625 1
x626 0
x627 1
x628 1
x629 1
x630 1
x631 0
x632 1
x633 1
x634 0
x635 0
x636 1
x637 0
x638 0
x639 0
x640 1
x641 0
x642 0
x643 0
x644 0
x645 0
x646 1
x647 0
x648 1
x649 0
x650 0
x651 0
x652 0
x653 1
x654 0
x655 0
x656 1
x657 1
x658 1
x659 0
x660 1
x661 1
x662 1
x663 0
x664 1
x665 1
x666 1
x667 1
x668 1
x669 0
x670 1
x671 0
x672 1
x673 1
x674 1
x675 1
x676 0
x677 1
x678 0
x679 0
x680 1
x681 1
x682 1
x683 0
x684 1
x685 1
x686 1
x687 0
x688 1
x689 1
x690 1
x691 1
x692 1
x693 0
x694 1
x695 0
x696 1
x697 1
x698 1
x699 1
x700 0
x701 1
x702 0
x703 1
x704 0
x705 1
x706 1
x707 1
x708 0
x709 1
x710 0
x711 1
x712 0
x713 1
x714 1
x715 1
x716 1
x717 1
x718 0
x719 1
x720 0
x721 1
x722 1
x723 1
x724 1
x725 0
x726 1
x727 0
x728 1
x729 1
x730 1
x731 0
x732 1
x733 0
x734 0
x735 0
x736 0
x737 0
x738 1
x739 0
x740 1
x741 0
x742 0
x743 0
x744 1
x745 0
x746 1
x747 0
x748 1
x749 0
x750 1
x751 1
x752 1
x753 1
x754 1
x755 0
x756 1
x757 1
x758 1
x759 1
x760 1
x761 0
x762 1
x763 1
x764 0
x765 0
x766 1
x767 0
x768 1
x769 1
x770 1
x771 1
x772 1
x773 0
x774 1
x775 1
x776 1
x777 1
x778 1
x779 0
x780 0
x781 1
x782 0
x783 1
x784 0
x785 1
x786 0
x787 1
x788 1
x789 0
x790 1
x791 1
x792 0
x793 1
x794 1
x795 1
x796 1
x797 1
x798 0
x799 1
x800 1
x801 0
x802 1
x803 1
x804 0
x805 1
x806 1
x807 1
x808 1
x809 0
x810 1
x811 0
x812 1
x813 1
x814 1
x815 1
x816 0
x817 1
x818 1
x819 1
x820 0
x821 0
x822 1
x823 1
x824 1
x825 0
x826 0
x827 1
x828 1
x829 1
x830 0
x831 1
x832 0
x833 1
x834 1
x835 1
x836 1
x837 0
x838 1
x839 1
x840 1
x841 1
x842 0
x843 1
x844 1
x845 1
x846 1
x847 1
x848 0
x849 0
x850 0
x851 0
x852 1
x853 1
x854 1
x855 0
x856 0
x857 0
x858 0
x859 1
x860 0
x861 0
x862 1
x863 0
x864 1
x865 0
x866 0
x867 0
x868 0
x869 0
x870 0
x871 1
x872 1
x873 1
x874 1
x875 0
x876 1
x877 0
x878 1
x879 1
x880 1
x881 1
x882 0
x883 1
x884 1
x885 1
x886 1
x887 0
x888 1
x889 1
x890 1
x891 1
x892 1
x893 0
x894 0
x895 0
x896 1
x897 1
x898 1
x899 1
x900 1
x901 1
x902 1
x903 0
x904 1
x905 1
x906 1
x907 1
x908 1
x909 0
x910 1
x911 0
x912 1
x913 1
x914 1
x915 1
x916 1
x917 0
x918 1
x919 1
x920 1
x921 0
x922 0
x923 0
x924 0
x925 0
x926 0
x927 0
x928 1
x929 1
x930 0
x931 1
x932 0
x933 0
x934 1
x935 0
x936 1
x937 0
x938 0
x939 0
x940 0
x941 0
x942 1
x943 0
x944 0
x945 0
x946 0
x947 1
x948 1
x949 1
x950 0
x951 1
x952 1
x953 1
x954 0
x955 1
x956 1
x957 1
x958 1
x959 1
x960 0
x961 1
x962 0
x963 1
x964 1
x965 1
x966 1
x967 1
x968 0
x969 1
x970 1
x971 0
x972 0
x973 0
x974 1
x975 1
x976 1
x977 1
x978 1
x979 1
x980 1
x981 0
x982 1
x983 0
x984 1
x985 1
x986 1
x987 0
x988 1
x989 0
x990 1
x991 1
x992 1
x993 1
x994 1
x995 0
x996 1
x997 1
x998 0
x999 1
x1000 0
x1001 0
x1002 1
x1003 1
x1004 0
x1005 1
x1006 1
x1007 1
x1008 0
x1009 1
x1010 1
x1011 1
x1012 1
x1013 0
x1014 1
x1015 1
x1016 1
x1017 0
x1018 1
x1019 1
x1020 1
x1021 1
x1022 1
x1023 0
x1024 1
x1025 1
x1026 0
x1027 1
x1028 1
x1029 0
x1030 1
x1031 1
x1032 1
x1033 0
x1034 1
x1035 1
x1036 1
x1037 0
x1038 1
x1039 1
x1040 1
x1041 0
x1042 0
x1043 1
x1044 1
x1045 1
x1046 0
x1047 1
x1048 1
x1049 1
x1050 1
x1051 1
x1052 0
x1053 1
x1054 1
x1055 0
x1056 1
x1057 1
x1058 1
x1059 0
x1060 1
x1061 1
x1062 1
x1063 0
x1064 1
x1065 1
x1066 1
x1067 0
x1068 1
x1069 1
x1070 1
x1071 1
x1072 0
x1073 1
x1074 1
x1075 1
x1076 0
x1077 1
x1078 1
x1079 1
x1080 1
x1081 1
x1082 0
x1083 1
x1084 1
x1085 0
x1086 1
x1087 1
x1088 1
x1089 1
x1090 1
x1091 0
x1092 0
x1093 0
x1094 1
x1095 0
x1096 1
x1097 0
x1098 1
x1099 0
x1100 0
x1101 1
x1102 0
x1103 1
x1104 0
x1105 0
x1106 0
x1107 1
x1108 0
x1109 0
x1110 0
x1111 0
x1112 0
x1113 1
x1114 0
x1115 0
x1116 1
x1117 0
x1118 0
x1119 0
x1120 0
x1121 0
x1 1
x2 0
x3 1
x4 0
x5 0
x6 0
x7 0
x8 0
x9 1
x10 1
x11 0
x12 0
x13 0
x14 0
x15 0
x16 1
x17 0
x18 0
x19 0
x20 1
x21 0
x22 1
x23 0
x24 0
x25 0
x26 0
x27 0
x28 0
x29 1
x30 0
x31 1
x32 0
x33 0
x34 0
x35 0
x36 0
x37 1
x38 0
x39 1
x40 0
x41 0
x42 0
x43 0
x44 1
x45 0
x46 1
x47 0
x48 0
x49 0
x50 1
x51 0
x52 0
x53 0
x54 0
x55 0
x56 1
x57 0
x58 0
x59 1
x60 0
x61 0
x62 0
x63 0
x64 0
x65 1
